; Copyright (c) 2026 The RIINA Authors. All rights reserved.
; Copyright (c) 2026 The RIINA Authors.
; Auto-generated from 02_FORMAL/coq/domains/WasmBackendVerification.v (43 assertions)
; Generated by scripts/generate-full-stack.py
; Module: WasmBackendVerification

(set-logic ALL)
(set-option :produce-models true)

; WasmValType (matches Coq: Inductive WasmValType)
(declare-datatypes ((WasmValType 0)) (((I32) (I64) (F32) (F64))))

; RiinaType (matches Coq: Inductive RiinaType)
(declare-datatypes ((RiinaType 0)) (((RTNombor) (RTTeks) (RTBool) (RTUnit) (RTSecret) (Public) (Secret))))

; WasmInstr (matches Coq: Inductive WasmInstr)
(declare-datatypes ((WasmInstr 0)) (((WConst) (WLoad) (WStore) (WAdd) (WMul) (WCall) (WLocalGet) (WLocalSet) (WIf) (WReturn) (WDrop) (WNop))))

; RiinaIR (matches Coq: Inductive RiinaIR)
(declare-datatypes ((RiinaIR 0)) (((IRConst) (IRVar) (IRAdd) (IRMul) (IRCall) (IRLet) (IRIf) (IRLoad) (IRStore))))

; RiinaEffect (matches Coq: Inductive RiinaEffect)
(declare-datatypes ((RiinaEffect 0)) (((EffPure) (EffIO) (EffNet) (EffFS))))

; sec_le (matches Coq: Definition sec_le)
(define-fun sec_le () Bool true)

; export_is_public (matches Coq: Definition export_is_public)
(define-fun export_is_public ((export_func Int)) Prop
  true)

; ni_preserved (matches Coq: Definition ni_preserved)
(define-fun ni_preserved () Prop true)

; memory_partitioned (matches Coq: Definition memory_partitioned)
(define-fun memory_partitioned () Prop true)

; effect_le (matches Coq: Definition effect_le)
(define-fun effect_le () Bool true)

; import_effect_safe (matches Coq: Definition import_effect_safe)
(define-fun import_effect_safe ((declared RiinaEffect) (import_effect RiinaEffect)) Prop
  true)

; regions_disjoint (matches Coq: Definition regions_disjoint)
(define-fun regions_disjoint () Prop true)

; no_cross_label_access (matches Coq: Definition no_cross_label_access)
(define-fun no_cross_label_access ((addr Int) (label SecLabel)) Prop
  true)

; string_in_segment (matches Coq: Definition string_in_segment)
(define-fun string_in_segment ((s StringConst) (seg DataSegment)) Prop
  true)

; string_compiles_to_ptr (matches Coq: Definition string_compiles_to_ptr)
(define-fun string_compiles_to_ptr ((s StringConst)) WasmBlock
  true)

; closure_layout_valid (matches Coq: Definition closure_layout_valid)
(define-fun closure_layout_valid ((cl Closure) (addr Int)) Prop
  true)

; compile_closure_alloc (matches Coq: Definition compile_closure_alloc)
(define-fun compile_closure_alloc ((cl Closure) (addr Int)) WasmBlock
  true)

; pair_size (matches Coq: Definition pair_size)
(define-fun pair_size () Int 8)

; sum_size (matches Coq: Definition sum_size)
(define-fun sum_size () Int 8)

; pair_fst_offset (matches Coq: Definition pair_fst_offset)
(define-fun pair_fst_offset ((p PairLayout)) Int
  true)

; pair_snd_offset (matches Coq: Definition pair_snd_offset)
(define-fun pair_snd_offset ((p PairLayout)) Int
  true)

; sum_tag_valid (matches Coq: Definition sum_tag_valid)
(define-fun sum_tag_valid ((s SumLayout)) Prop
  true)

; wasm_eval_const (matches Coq: Lemma wasm_eval_const)
(assert (= true true)) ; wasm_eval_const [untranslatable]

; wasm_eval_add (matches Coq: Lemma wasm_eval_add)
(assert (= true true)) ; wasm_eval_add [untranslatable]

; wasm_eval_mul (matches Coq: Lemma wasm_eval_mul)
(assert (= true true)) ; wasm_eval_mul [untranslatable]

; wasm_001_const_preservation (matches Coq: Theorem wasm_001_const_preservation)
(assert (= true true)) ; wasm_001_const_preservation [untranslatable]

; wasm_002_ni_preservation (matches Coq: Theorem wasm_002_ni_preservation)
(assert (= true true)) ; wasm_002_ni_preservation [untranslatable]

; wasm_002_memory_separation (matches Coq: Theorem wasm_002_memory_separation)
(assert (= true true)) ; wasm_002_memory_separation [untranslatable]

; wasm_003_effect_preservation (matches Coq: Theorem wasm_003_effect_preservation)
(assert (= true true)) ; wasm_003_effect_preservation [untranslatable]

; wasm_003_io_self_safe (matches Coq: Theorem wasm_003_io_self_safe)
(assert (= true true)) ; wasm_003_io_self_safe [untranslatable]

; wasm_004_int_type_preserved (matches Coq: Theorem wasm_004_int_type_preserved)
(assert (= true true)) ; wasm_004_int_type_preserved [untranslatable]

; wasm_004_add_type_preserved (matches Coq: Theorem wasm_004_add_type_preserved)
(assert (= true true)) ; wasm_004_add_type_preserved [untranslatable]

; wasm_004_bool_type_preserved (matches Coq: Theorem wasm_004_bool_type_preserved)
(assert (= (type_compile RTBool) I32)) ; wasm_004_bool_type_preserved

; wasm_005_disjoint_regions (matches Coq: Theorem wasm_005_disjoint_regions)
(assert (= true true)) ; wasm_005_disjoint_regions [untranslatable]

; wasm_005_public_cannot_access_secret (matches Coq: Theorem wasm_005_public_cannot_access_secret)
(assert (= true true)) ; wasm_005_public_cannot_access_secret [untranslatable]

; wasm_006_string_const_produces_ptr (matches Coq: Theorem wasm_006_string_const_produces_ptr)
(assert (= true true)) ; wasm_006_string_const_produces_ptr [untranslatable]

; wasm_006_string_ptr_is_i32 (matches Coq: Theorem wasm_006_string_ptr_is_i32)
(assert (= true true)) ; wasm_006_string_ptr_is_i32 [untranslatable]

; wasm_006_string_dedup (matches Coq: Theorem wasm_006_string_dedup)
(assert (= true true)) ; wasm_006_string_dedup [untranslatable]

; wasm_007_closure_layout (matches Coq: Theorem wasm_007_closure_layout)
(assert (= true true)) ; wasm_007_closure_layout [untranslatable]

; wasm_007_closure_no_overlap (matches Coq: Theorem wasm_007_closure_no_overlap)
(assert (= true true)) ; wasm_007_closure_no_overlap [untranslatable]

; wasm_007_closure_func_idx_recoverable (matches Coq: Theorem wasm_007_closure_func_idx_recoverable)
(assert (= true true)) ; wasm_007_closure_func_idx_recoverable [untranslatable]

; wasm_008_pair_offsets_disjoint (matches Coq: Theorem wasm_008_pair_offsets_disjoint)
(assert (= true true)) ; wasm_008_pair_offsets_disjoint [untranslatable]

; wasm_008_pair_fits_in_region (matches Coq: Theorem wasm_008_pair_fits_in_region)
(assert (= true true)) ; wasm_008_pair_fits_in_region [untranslatable]

; wasm_008_sum_tag_determines_branch (matches Coq: Theorem wasm_008_sum_tag_determines_branch)
(assert (= true true)) ; wasm_008_sum_tag_determines_branch [untranslatable]

; wasm_008_sum_fits_in_region (matches Coq: Theorem wasm_008_sum_fits_in_region)
(assert (= true true)) ; wasm_008_sum_fits_in_region [untranslatable]

; wasm_008_pairs_disjoint (matches Coq: Theorem wasm_008_pairs_disjoint)
(assert (= true true)) ; wasm_008_pairs_disjoint [untranslatable]

; wasm_009_alloc_returns_current (matches Coq: Theorem wasm_009_alloc_returns_current)
(assert (= true true)) ; wasm_009_alloc_returns_current [untranslatable]

; wasm_009_alloc_advances_ptr (matches Coq: Theorem wasm_009_alloc_advances_ptr)
(assert (= true true)) ; wasm_009_alloc_advances_ptr [untranslatable]

; wasm_009_alloc_preserves_limit (matches Coq: Theorem wasm_009_alloc_preserves_limit)
(assert (= true true)) ; wasm_009_alloc_preserves_limit [untranslatable]

; wasm_009_sequential_alloc_disjoint (matches Coq: Theorem wasm_009_sequential_alloc_disjoint)
(assert (= true true)) ; wasm_009_sequential_alloc_disjoint [untranslatable]

; wasm_009_alloc_oom (matches Coq: Theorem wasm_009_alloc_oom)
(assert (= true true)) ; wasm_009_alloc_oom [untranslatable]

; wasm_010_compile_ir_total (matches Coq: Theorem wasm_010_compile_ir_total)
(assert (= true true)) ; wasm_010_compile_ir_total [untranslatable]

; wasm_010_const_translates (matches Coq: Theorem wasm_010_const_translates)
(assert (= true true)) ; wasm_010_const_translates [untranslatable]

; wasm_010_var_translates (matches Coq: Theorem wasm_010_var_translates)
(assert (= true true)) ; wasm_010_var_translates [untranslatable]

; wasm_010_add_translates (matches Coq: Theorem wasm_010_add_translates)
(assert (= true true)) ; wasm_010_add_translates [untranslatable]

; wasm_010_mul_translates (matches Coq: Theorem wasm_010_mul_translates)
(assert (= true true)) ; wasm_010_mul_translates [untranslatable]

; wasm_010_call_translates (matches Coq: Theorem wasm_010_call_translates)
(assert (= true true)) ; wasm_010_call_translates [untranslatable]

; wasm_010_let_translates (matches Coq: Theorem wasm_010_let_translates)
(assert (= true true)) ; wasm_010_let_translates [untranslatable]

; wasm_010_if_translates (matches Coq: Theorem wasm_010_if_translates)
(assert (= true true)) ; wasm_010_if_translates [untranslatable]

; wasm_010_load_translates (matches Coq: Theorem wasm_010_load_translates)
(assert (= true true)) ; wasm_010_load_translates [untranslatable]

; wasm_010_store_translates (matches Coq: Theorem wasm_010_store_translates)
(assert (= true true)) ; wasm_010_store_translates [untranslatable]

; app_ne_nil_r (matches Coq: Lemma app_ne_nil_r)
(assert (= true true)) ; app_ne_nil_r [untranslatable]

; singleton_ne_nil (matches Coq: Lemma singleton_ne_nil)
(assert (= true true)) ; singleton_ne_nil [untranslatable]

; cons_ne_nil (matches Coq: Lemma cons_ne_nil)
(assert (= true true)) ; cons_ne_nil [untranslatable]

; wasm_010_completeness (matches Coq: Theorem wasm_010_completeness)
(assert (= true true)) ; wasm_010_completeness [untranslatable]

; Verify all assertions are satisfiable
(check-sat)
(exit)
